(set-info :smt-lib-version 2.6)
(set-logic QF_UF)
(set-info :source |
Generated by: Aman Goel (amangoel@umich.edu), Karem A. Sakallah (karem@umich.edu)
Generated on: 2018-04-06

Generated by the tool Averroes 2 (successor of [1]) which implements safety property
verification on hardware systems.

This SMT problem belongs to a set of SMT problems generated by applying Averroes 2
to benchmarks derived from [2-5].

A total of 412 systems (345 from [2], 19 from [3], 26 from [4], 22 from [5]) were
syntactically converted from their original formats (using [6, 7]), and given to 
Averroes 2 to perform property checking with abstraction (wide bit-vectors -> terms, 
wide operators -> UF) using SMT solvers [8, 9].

[1] Lee S., Sakallah K.A. (2014) Unbounded Scalable Verification Based on Approximate
Property-Directed Reachability and Datapath Abstraction. In: Biere A., Bloem R. (eds)
Computer Aided Verification. CAV 2014. Lecture Notes in Computer Science, vol 8559.
Springer, Cham
[2] http://fmv.jku.at/aiger/index.html#beem
[3] http://www.cs.cmu.edu/~modelcheck/vcegar
[4] http://www.cprover.org/hardware/v2c
[5] http://github.com/aman-goel/verilogbench
[6] http://www.clifford.at/yosys
[7] http://github.com/chengyinwu/V3
[8] http://github.com/Z3Prover/z3
[9] http://github.com/SRI-CSL/yices2

id: anderson.2.prop1
query-maker: "Yices 2"
query-time: 0.115000 ms
query-class: abstract
query-category: oneshot
query-type: regular
status: sat
|)
(set-info :license "https://creativecommons.org/licenses/by/4.0/")
(set-info :category "industrial")

;
(set-info :status sat)
(declare-sort utt$8 0)
(declare-sort utt$32 0)
(declare-fun Add_32_32_32 (utt$32 utt$32 ) utt$32)
(declare-fun GrEq_1_32_32 (utt$32 utt$32 ) Bool)
(declare-fun y$1 () Bool)
(declare-fun y$1042 () Bool)
(declare-fun y$1045 () Bool)
(declare-fun y$1046 () Bool)
(declare-fun y$1071 () Bool)
(declare-fun y$1091 () Bool)
(declare-fun y$1099 () Bool)
(declare-fun y$11 () Bool)
(declare-fun y$1104 () Bool)
(declare-fun y$1105 () Bool)
(declare-fun y$1106 () Bool)
(declare-fun y$1107 () Bool)
(declare-fun y$1108 () Bool)
(declare-fun y$1109 () Bool)
(declare-fun y$1110 () Bool)
(declare-fun y$1119 () Bool)
(declare-fun y$13 () Bool)
(declare-fun y$15 () Bool)
(declare-fun y$17 () Bool)
(declare-fun y$19 () Bool)
(declare-fun y$21 () Bool)
(declare-fun y$23 () Bool)
(declare-fun y$25 () Bool)
(declare-fun y$27 () Bool)
(declare-fun y$29 () Bool)
(declare-fun y$3 () Bool)
(declare-fun y$31 () Bool)
(declare-fun y$34 () Bool)
(declare-fun y$36 () Bool)
(declare-fun y$38 () Bool)
(declare-fun y$40 () Bool)
(declare-fun y$42 () Bool)
(declare-fun y$44 () Bool)
(declare-fun y$46 () Bool)
(declare-fun y$5 () Bool)
(declare-fun y$7 () Bool)
(declare-fun y$9 () Bool)
(declare-fun y$a_CS_P_0 () Bool)
(declare-fun y$a_CS_P_0$next () Bool)
(declare-fun y$a_CS_P_1 () Bool)
(declare-fun y$a_CS_P_1$next () Bool)
(declare-fun y$a_CS_P_2 () Bool)
(declare-fun y$a_NCS_P_0 () Bool)
(declare-fun y$a_NCS_P_1 () Bool)
(declare-fun y$a_NCS_P_2 () Bool)
(declare-fun y$a_p1_P_0 () Bool)
(declare-fun y$a_p1_P_1 () Bool)
(declare-fun y$a_p1_P_2 () Bool)
(declare-fun y$a_p2_P_0 () Bool)
(declare-fun y$a_p2_P_1 () Bool)
(declare-fun y$a_p2_P_2 () Bool)
(declare-fun y$a_p3_P_0 () Bool)
(declare-fun y$a_p3_P_1 () Bool)
(declare-fun y$a_p3_P_2 () Bool)
(declare-fun y$dve_invalid () Bool)
(declare-fun y$id33 () Bool)
(declare-fun y$id33_op () Bool)
(declare-fun y$n0s32 () utt$32)
(declare-fun y$n0s8 () utt$8)
(declare-fun y$n1s32 () utt$32)
(declare-fun y$n1s8 () utt$8)
(declare-fun y$n2s32 () utt$32)
(declare-fun y$n2s8 () utt$8)
(declare-fun y$n3s32 () utt$32)
(declare-fun y$prop () Bool)
(declare-fun y$v3_1517448492_26 () utt$32)
(declare-fun y$v3_1517448492_26$next () utt$32)
(declare-fun y$v3_1517448492_26$next_op () utt$32)
(declare-fun y$v3_1517448492_26_op () utt$32)
(declare-fun y$v3_1517448492_27 () utt$32)
(declare-fun y$v3_1517448492_27$next () utt$32)
(declare-fun y$v3_1517448492_27$next_op () utt$32)
(declare-fun y$v3_1517448492_27_op () utt$32)
(declare-fun y$v3_1517448492_28 () utt$32)
(declare-fun y$v3_1517448492_28$next () utt$32)
(declare-fun y$v3_1517448492_28$next_op () utt$32)
(declare-fun y$v3_1517448492_28_op () utt$32)
(declare-fun y$v3_1517448492_29 () utt$32)
(declare-fun y$v3_1517448492_29_op () utt$32)
(declare-fun y$v3_1517448492_30 () utt$32)
(declare-fun y$v3_1517448492_30_op () utt$32)
(declare-fun y$v3_1517448492_31 () Bool)
(declare-fun y$v3_1517448492_31_op () Bool)
(declare-fun y$v_Slot_0 () utt$8)
(declare-fun y$v_Slot_1 () utt$8)
(declare-fun y$v_Slot_2 () utt$8)
(declare-fun y$v_my_place_P_0 () utt$8)
(declare-fun y$v_my_place_P_1 () utt$8)
(declare-fun y$v_my_place_P_2 () utt$8)
(declare-fun y$v_next () utt$8)
(assert (distinct y$n0s8 y$n1s8 y$n2s8))
(assert (distinct y$n0s32 y$n1s32 y$n3s32 y$n2s32))
(assert (= y$a_CS_P_0 (not y$1)))
(assert (= y$a_CS_P_1 (not y$3)))
(assert (= y$a_CS_P_2 (not y$5)))
(assert (= y$a_NCS_P_0 (not y$7)))
(assert (= y$a_NCS_P_1 (not y$9)))
(assert (= y$a_NCS_P_2 (not y$11)))
(assert (= y$a_p1_P_0 (not y$13)))
(assert (= y$a_p1_P_1 (not y$15)))
(assert (= y$a_p1_P_2 (not y$17)))
(assert (= y$a_p2_P_0 (not y$19)))
(assert (= y$a_p2_P_1 (not y$21)))
(assert (= y$a_p2_P_2 (not y$23)))
(assert (= y$a_p3_P_0 (not y$25)))
(assert (= y$a_p3_P_1 (not y$27)))
(assert (= y$a_p3_P_2 (not y$29)))
(assert (= y$dve_invalid (not y$31)))
(assert (= y$34 (= y$n0s8 y$v_Slot_0)))
(assert (= y$36 (= y$n0s8 y$v_Slot_1)))
(assert (= y$38 (= y$n0s8 y$v_Slot_2)))
(assert (= y$40 (= y$n0s8 y$v_my_place_P_0)))
(assert (= y$42 (= y$n0s8 y$v_my_place_P_1)))
(assert (= y$44 (= y$n0s8 y$v_my_place_P_2)))
(assert (= y$46 (= y$n0s8 y$v_next)))
(assert (= y$prop (not y$1071)))
(assert (= y$v3_1517448492_26_op (ite y$a_CS_P_0 y$n1s32 y$n0s32)))
(assert (= y$v3_1517448492_27_op (ite y$a_CS_P_1 y$n1s32 y$n0s32)))
(assert (= y$v3_1517448492_28_op (Add_32_32_32 y$v3_1517448492_26_op y$v3_1517448492_27_op)))
(assert (= y$v3_1517448492_29_op (ite y$a_CS_P_2 y$n1s32 y$n0s32)))
(assert (= y$v3_1517448492_30_op (Add_32_32_32 y$v3_1517448492_28_op y$v3_1517448492_29_op)))
(assert (= y$v3_1517448492_31_op (GrEq_1_32_32 y$n1s32 y$v3_1517448492_30_op)))
(assert (= y$v3_1517448492_31_op (not y$1042)))
(assert (= y$id33_op (and y$31 y$1042)))
(assert (= y$id33_op (not y$1045)))
(assert (= y$1046 (= y$prop y$1045)))
(assert (= y$a_CS_P_0$next (not y$1105)))
(assert (= y$a_CS_P_1$next (not y$1106)))
(assert (= y$v3_1517448492_26$next_op (ite y$a_CS_P_0$next y$n1s32 y$n0s32)))
(assert (= y$v3_1517448492_27$next_op (ite y$a_CS_P_1$next y$n1s32 y$n0s32)))
(assert (= y$v3_1517448492_28$next_op (Add_32_32_32 y$v3_1517448492_26$next_op y$v3_1517448492_27$next_op)))
(assert (= y$1107 (not (= y$n0s32 y$v3_1517448492_28$next_op))))
(assert (= y$1108 (and y$1105 y$1106 y$1107)))
(assert (= y$1108 (not y$1110)))
(assert (= y$1099 (not (= y$n0s32 y$v3_1517448492_28_op))))
(assert (= y$1104 (and y$1 y$3 y$1099)))
(assert (= y$1104 (not y$1109)))
(assert (= y$1119 (and y$1 y$3 y$5 y$7 y$9 y$11 y$13 y$15 y$17 y$19 y$21 y$23 y$25 y$27 y$29 y$31 y$34 y$36 y$38 y$40 y$42 y$44 y$46 y$1071 y$1046 y$1110 y$1109)))
(assert y$1119)
(check-sat)
(exit)
